
Gurobi 11.0.3 (linux64) logging started Mon Aug 25 15:04:42 2025

Set parameter LogFile to value "/home/yihong/Coding/OR_SUC/SUC_epstheta_results_bigM100000_thread4/case24_ieee_rts_theta0.1_epsilon0.1_gurobi_seed220000_num_gen100_N_WDR50_load_scaling_factor1_proposed_eps_T8quadra_cost_bc1.01.txt"
Set parameter TimeLimit to value 3600
Gurobi Optimizer version 11.0.3 build v11.0.3rc0 (linux64 - "Ubuntu 20.04.6 LTS")

CPU model: AMD EPYC 7532 32-Core Processor, instruction set [SSE2|AVX|AVX2]
Thread count: 64 physical cores, 128 logical processors, using up to 4 threads

Academic license 2399124 - for non-commercial use only - registered to yi___@ed.ac.uk
Optimize a model with 18804 rows, 9971 columns and 437334 nonzeros
Model fingerprint: 0xcab97f79
Model has 800 quadratic constraints
Variable types: 9171 continuous, 800 integer (800 binary)
Coefficient statistics:
  Matrix range     [3e-04, 2e+03]
  QMatrix range    [2e-03, 8e-03]
  QLMatrix range   [2e-01, 6e+01]
  Objective range  [1e+00, 1e+00]
  Bounds range     [1e+00, 1e+00]
  RHS range        [1e+00, 8e+03]
Presolve removed 15620 rows and 4426 columns
Presolve time: 0.12s
Presolved: 3184 rows, 5545 columns, 19076 nonzeros
Presolved model has 800 quadratic constraint(s)
Variable types: 4745 continuous, 800 integer (800 binary)

Root relaxation: objective 9.133776e+03, 2383 iterations, 0.04 seconds (0.05 work units)

    Nodes    |    Current Node    |     Objective Bounds      |     Work
 Expl Unexpl |  Obj  Depth IntInf | Incumbent    BestBd   Gap | It/Node Time

H    0     0                    134707.25001 9133.77596  93.2%     -    0s
*    0     0               0    134707.25001 9133.77596  93.2%     -    0s
     0     0 11034.1949    0  224 134707.250 11034.1949  91.8%     -    0s
     0     0 101101.313    0  151 134707.250 101101.313  24.9%     -    0s
H    0     0                    119944.71100 101104.653  15.7%     -    0s
     0     0 118436.281    0  127 119944.711 118436.281  1.26%     -    0s
     0     0 118469.923    0    1 119944.711 118469.923  1.23%     -    0s
     0     0 118470.654    0    2 119944.711 118470.654  1.23%     -    0s
     0     0 118471.130    0    2 119944.711 118471.130  1.23%     -    0s
     0     2 118471.130    0    2 119944.711 118471.130  1.23%     -    1s
H   92    93                    118516.61767 118484.284  0.03%  23.4    1s
*   92    93              16    118516.61767 118484.284  0.03%  23.4    1s

Cutting planes:
  Gomory: 29
  Implied bound: 83
  MIR: 42
  Flow cover: 178
  RLT: 14
  Relax-and-lift: 72

Explored 94 nodes (9938 simplex iterations) in 1.80 seconds (1.68 work units)
Thread count was 4 (of 128 available processors)

Solution count 4: 118517 118517 119945 134707 

Optimal solution found (tolerance 1.00e-03)
Warning: max constraint violation (4.1220e-08) exceeds tolerance
Best objective 1.185166176657e+05, best bound 1.184842844518e+05, gap 0.0273%

Gurobi 11.0.3 (linux64) logging started Mon Aug 25 15:04:44 2025

Set parameter LogFile to value "/home/yihong/Coding/OR_SUC/SUC_epstheta_results_bigM100000_thread4/case24_ieee_rts_theta0.1_epsilon0.1_gurobi_seed220000_num_gen100_N_WDR50_load_scaling_factor1_proposed_eps_T8quadra_cost_bc1.01.txt"
Set parameter TimeLimit to value 3600
Gurobi Optimizer version 11.0.3 build v11.0.3rc0 (linux64 - "Ubuntu 20.04.6 LTS")

CPU model: AMD EPYC 7532 32-Core Processor, instruction set [SSE2|AVX|AVX2]
Thread count: 64 physical cores, 128 logical processors, using up to 4 threads

Academic license 2399124 - for non-commercial use only - registered to yi___@ed.ac.uk
Optimize a model with 18804 rows, 9972 columns and 439763 nonzeros
Model fingerprint: 0x556dd08a
Model has 801 quadratic constraints
Variable types: 9172 continuous, 800 integer (800 binary)
Coefficient statistics:
  Matrix range     [3e-04, 2e+03]
  QMatrix range    [2e-03, 5e+01]
  QLMatrix range   [2e-01, 6e+01]
  Objective range  [1e+00, 1e+00]
  Bounds range     [1e-01, 1e+00]
  RHS range        [1e+00, 1e+05]
  QRHS range       [5e+00, 5e+00]
Presolve removed 14217 rows and 3728 columns
Presolve time: 0.12s
Presolved: 5389 rows, 7044 columns, 29703 nonzeros
Presolved model has 800 quadratic constraint(s)
Presolved model has 1 bilinear constraint(s)

Solving non-convex MIQCP

Variable types: 6242 continuous, 802 integer (802 binary)

Root relaxation: objective 1.397010e-03, 7547 iterations, 0.34 seconds (0.47 work units)

    Nodes    |    Current Node    |     Objective Bounds      |     Work
 Expl Unexpl |  Obj  Depth IntInf | Incumbent    BestBd   Gap | It/Node Time

     0     0    0.00140    0   16          -    0.00140      -     -    0s
     0     0    0.00140    0   16          -    0.00140      -     -    0s
     0     0    0.00195    0   16          -    0.00195      -     -    1s
     0     0    0.00195    0   16          -    0.00195      -     -    1s
     0     0    0.00195    0   16          -    0.00195      -     -    1s
     0     0    0.00195    0   16          -    0.00195      -     -    1s
     0     0    0.00195    0   16          -    0.00195      -     -    1s
     0     0    0.00195    0   16          -    0.00195      -     -    1s
     0     0    0.00248    0   16          -    0.00248      -     -    1s
H    0     0                       0.0303050    0.00248  91.8%     -    1s
H    0     0                       0.0303024    0.00248  91.8%     -    1s
     0     2    0.03005    0   16    0.03030    0.03005  0.84%     -    2s

Cutting planes:
  Implied bound: 2
  Flow cover: 2
  RLT: 14

Explored 26 nodes (9030 simplex iterations) in 2.39 seconds (2.41 work units)
Thread count was 4 (of 128 available processors)

Solution count 2: 0.0303024 0.030305 

Optimal solution found (tolerance 1.00e-03)
Best objective 3.030235930398e-02, best bound 3.029960550115e-02, gap 0.0091%
